1 2782
2 2464
3 2301
9 2285
16 2177
27 2171
229 2160
618 2159
646 2123



1 2737
2 2422
4 2343
8 2251
10 2243
29 2234
34 2192
60 2166
119 2163
161 2144



1 2692
2 2424
3 2298
6 2292
12 2289
14 2261
16 2220
105 2206
184 2170
315 2159
720 2146



1 2700
2 2404
3 2394
4 2326
7 2270
10 2264
15 2251
18 2213
33 2200
193 2187
305 2170
550 2164
629 2135



1 2841
2 2407
4 2380
5 2374
6 2339
7 2277
27 2252
43 2251
49 2215
72 2180
254 2122



